100
32
21
28
19
16
6
7
11
26
7
27
11
9
16
14
9
9
7
3
1
1
13
12
9
12
1
1
20
1
1
4
3
4
1
21
9
7
3
6
1
1
3
2
17
1
2
2
1
2
2
6
1
2
3
1
1
17
1
1
16
4
3
1
1
1
2
4
2
19
5
1
1
17
5
2
1
2
2
3
1
17
2
2
1
1
1
3
2
1
2
2
2
1
4
1
1
1
20
1
3
4